%%% static parameters %%%
timespan = 1;
Fact = [2];
Distr1 = [5];
Distr2 = [10];
Clients_N = [120];
Demand_W = [15];
Lt0 = [4];
Lt1 = [4];
SS_ = [0.85];
DS_D = [5];
K = [200];
MA = [500];
%%% dynamic parameters %%%
lost_ratio_sales_ret_th = 0.14167238599796173;
lost_ratio_sales_ret_w = 52;
lost_ratio_sales_dis_th = 0.8575220629544038;
lost_ratio_sales_dis_w = 44;
lost_ratio_sales_fac_th = 0.2785021013937239;
lost_ratio_sales_fac_w = 30;
stock_customer_MA_mean_relative_th = 0.7598647076804416;
stock_customer_MA_mean_relative_w = 56;
stock_distributor_MA_mean_relative_th = 0.6589442836582675;
stock_distributor_MA_mean_relative_w = 47;
stock_retailer_MA_mean_relative_th = 0.5701429531371639;
stock_retailer_MA_mean_relative_w = 58;
stock_factory_MA_mean_relative_th = 0.8554553230728777;
stock_factory_MA_mean_relative_w = 76;
